#------------------------------------------------------------------------------
#$Date: 2012-02-28 15:44:07 +0000 (Tue, 28 Feb 2012) $
#$Revision: 35913 $
#$URL: file:///home/coder/svn-repositories/cod/cif/9/00/34/9003422.cif $
#------------------------------------------------------------------------------
#
# This file is available in the Crystallography Open Database (COD),
# http://www.crystallography.net/. The original data for this entry
# were provided the American Mineralogist Crystal Structure Database,
# http://rruff.geo.arizona.edu/AMS/amcsd.php
#
# The file may be used within the scientific community so long as
# proper attribution is given to the journal article from which the
# data were obtained.
#
data_9003422
loop_
_publ_author_name
'Duan, W.'
'Karki, B.'
'Wentzcovitch, R.'
_publ_section_title
;
 Ab initio study of MgSiO3 low-clinoenstatite at high pressure
;
_journal_name_full               'American Mineralogist'
_journal_page_first              614
_journal_page_last               628
_journal_volume                  89
_journal_year                    2004
_chemical_formula_sum            'Mg O3 Si'
_chemical_name_mineral           Pyroxene-ideal
_space_group_IT_number           14
_symmetry_space_group_name_Hall  '-P 2ybc'
_symmetry_space_group_name_H-M   'P 1 21/c 1'
_cell_angle_alpha                90
_cell_angle_beta                 107.9
_cell_angle_gamma                90
_cell_length_a                   9.4876
_cell_length_b                   8.6682
_cell_length_c                   5.1050
_cell_volume                     399.5
_[local]_cod_chemical_formula_sum_orig 'Mg Si O3'
_cod_database_code               9003422
_amcsd_database_code             AMCSD#0003510
loop_
_symmetry_equiv_pos_as_xyz
x,y,z
x,1/2-y,1/2+z
-x,1/2+y,1/2-z
-x,-y,-z
loop_
_atom_site_label
_atom_site_fract_x
_atom_site_fract_y
_atom_site_fract_z
Mg1 0.2517 0.6557 0.2121 
Mg2 0.2572 0.0129 0.2094 
SiA 0.0429 0.3424 0.2979 
SiB 0.5554 0.8377 0.2239 
O1A 0.8642 0.3396 0.1891 
O2A 0.1239 0.5046 0.3185 
O3A 0.1082 0.2856 0.6249 
O1B 0.3758 0.8382 0.1176 
O2B 0.6353 0.9838 0.3944 
O3B 0.6091 0.6876 0.4418
